certificates/rado_a13_c254_N49.cnf
c Rad2 upper bound instance: x1 + 13*x2 - x3 = 254, interval [1,49]
p cnf 49 366
1 7 20 0
-1 -7 -20 0
1 20 21 0
-1 -20 -21 0
1 22 33 0
-1 -22 -33 0
1 23 46 0
-1 -23 -46 0
2 8 20 0
-2 -8 -20 0
2 21 0
-2 -21 0
2 22 34 0
-2 -22 -34 0
2 23 47 0
-2 -23 -47 0
3 9 20 0
-3 -9 -20 0
3 21 22 0
-3 -21 -22 0
3 22 35 0
-3 -22 -35 0
3 23 48 0
-3 -23 -48 0
4 10 20 0
-4 -10 -20 0
4 21 23 0
-4 -21 -23 0
4 22 36 0
-4 -22 -36 0
4 23 49 0
-4 -23 -49 0
5 11 20 0
-5 -11 -20 0
5 21 24 0
-5 -21 -24 0
5 22 37 0
-5 -22 -37 0
6 12 20 0
-6 -12 -20 0
6 21 25 0
-6 -21 -25 0
6 22 38 0
-6 -22 -38 0
7 13 20 0
-7 -13 -20 0
7 21 26 0
-7 -21 -26 0
7 22 39 0
-7 -22 -39 0
1 8 19 0
-1 -8 -19 0
8 14 20 0
-8 -14 -20 0
8 21 27 0
-8 -21 -27 0
8 22 40 0
-8 -22 -40 0
2 9 19 0
-2 -9 -19 0
9 15 20 0
-9 -15 -20 0
9 21 28 0
-9 -21 -28 0
9 22 41 0
-9 -22 -41 0
3 10 19 0
-3 -10 -19 0
10 16 20 0
-10 -16 -20 0
10 21 29 0
-10 -21 -29 0
10 22 42 0
-10 -22 -42 0
4 11 19 0
-4 -11 -19 0
11 17 20 0
-11 -17 -20 0
11 21 30 0
-11 -21 -30 0
11 22 43 0
-11 -22 -43 0
5 12 19 0
-5 -12 -19 0
12 18 20 0
-12 -18 -20 0
12 21 31 0
-12 -21 -31 0
12 22 44 0
-12 -22 -44 0
6 13 19 0
-6 -13 -19 0
13 19 20 0
-13 -19 -20 0
13 21 32 0
-13 -21 -32 0
13 22 45 0
-13 -22 -45 0
7 14 19 0
-7 -14 -19 0
14 20 0
-14 -20 0
14 21 33 0
-14 -21 -33 0
14 22 46 0
-14 -22 -46 0
8 15 19 0
-8 -15 -19 0
15 20 21 0
-15 -20 -21 0
15 21 34 0
-15 -21 -34 0
15 22 47 0
-15 -22 -47 0
9 16 19 0
-9 -16 -19 0
16 20 22 0
-16 -20 -22 0
16 21 35 0
-16 -21 -35 0
16 22 48 0
-16 -22 -48 0
10 17 19 0
-10 -17 -19 0
17 20 23 0
-17 -20 -23 0
17 21 36 0
-17 -21 -36 0
17 22 49 0
-17 -22 -49 0
11 18 19 0
-11 -18 -19 0
18 20 24 0
-18 -20 -24 0
18 21 37 0
-18 -21 -37 0
12 19 0
-12 -19 0
19 20 25 0
-19 -20 -25 0
19 21 38 0
-19 -21 -38 0
20 26 0
-20 -26 0
20 21 39 0
-20 -21 -39 0
1 18 21 0
-1 -18 -21 0
14 19 21 0
-14 -19 -21 0
20 21 27 0
-20 -21 -27 0
21 40 0
-21 -40 0
2 18 22 0
-2 -18 -22 0
15 19 22 0
-15 -19 -22 0
20 22 28 0
-20 -22 -28 0
21 22 41 0
-21 -22 -41 0
3 18 23 0
-3 -18 -23 0
16 19 23 0
-16 -19 -23 0
20 23 29 0
-20 -23 -29 0
21 23 42 0
-21 -23 -42 0
4 18 24 0
-4 -18 -24 0
17 19 24 0
-17 -19 -24 0
20 24 30 0
-20 -24 -30 0
21 24 43 0
-21 -24 -43 0
5 18 25 0
-5 -18 -25 0
18 19 25 0
-18 -19 -25 0
20 25 31 0
-20 -25 -31 0
21 25 44 0
-21 -25 -44 0
6 18 26 0
-6 -18 -26 0
19 26 0
-19 -26 0
20 26 32 0
-20 -26 -32 0
21 26 45 0
-21 -26 -45 0
7 18 27 0
-7 -18 -27 0
19 20 27 0
-19 -20 -27 0
20 27 33 0
-20 -27 -33 0
21 27 46 0
-21 -27 -46 0
8 18 28 0
-8 -18 -28 0
19 21 28 0
-19 -21 -28 0
20 28 34 0
-20 -28 -34 0
21 28 47 0
-21 -28 -47 0
9 18 29 0
-9 -18 -29 0
19 22 29 0
-19 -22 -29 0
20 29 35 0
-20 -29 -35 0
21 29 48 0
-21 -29 -48 0
10 18 30 0
-10 -18 -30 0
19 23 30 0
-19 -23 -30 0
20 30 36 0
-20 -30 -36 0
21 30 49 0
-21 -30 -49 0
11 18 31 0
-11 -18 -31 0
19 24 31 0
-19 -24 -31 0
20 31 37 0
-20 -31 -37 0
12 18 32 0
-12 -18 -32 0
19 25 32 0
-19 -25 -32 0
20 32 38 0
-20 -32 -38 0
13 18 33 0
-13 -18 -33 0
19 26 33 0
-19 -26 -33 0
20 33 39 0
-20 -33 -39 0
1 17 34 0
-1 -17 -34 0
14 18 34 0
-14 -18 -34 0
19 27 34 0
-19 -27 -34 0
20 34 40 0
-20 -34 -40 0
2 17 35 0
-2 -17 -35 0
15 18 35 0
-15 -18 -35 0
19 28 35 0
-19 -28 -35 0
20 35 41 0
-20 -35 -41 0
3 17 36 0
-3 -17 -36 0
16 18 36 0
-16 -18 -36 0
19 29 36 0
-19 -29 -36 0
20 36 42 0
-20 -36 -42 0
4 17 37 0
-4 -17 -37 0
17 18 37 0
-17 -18 -37 0
19 30 37 0
-19 -30 -37 0
20 37 43 0
-20 -37 -43 0
5 17 38 0
-5 -17 -38 0
18 38 0
-18 -38 0
19 31 38 0
-19 -31 -38 0
20 38 44 0
-20 -38 -44 0
6 17 39 0
-6 -17 -39 0
18 19 39 0
-18 -19 -39 0
19 32 39 0
-19 -32 -39 0
20 39 45 0
-20 -39 -45 0
7 17 40 0
-7 -17 -40 0
18 20 40 0
-18 -20 -40 0
19 33 40 0
-19 -33 -40 0
20 40 46 0
-20 -40 -46 0
8 17 41 0
-8 -17 -41 0
18 21 41 0
-18 -21 -41 0
19 34 41 0
-19 -34 -41 0
20 41 47 0
-20 -41 -47 0
9 17 42 0
-9 -17 -42 0
18 22 42 0
-18 -22 -42 0
19 35 42 0
-19 -35 -42 0
20 42 48 0
-20 -42 -48 0
10 17 43 0
-10 -17 -43 0
18 23 43 0
-18 -23 -43 0
19 36 43 0
-19 -36 -43 0
20 43 49 0
-20 -43 -49 0
11 17 44 0
-11 -17 -44 0
18 24 44 0
-18 -24 -44 0
19 37 44 0
-19 -37 -44 0
12 17 45 0
-12 -17 -45 0
18 25 45 0
-18 -25 -45 0
19 38 45 0
-19 -38 -45 0
13 17 46 0
-13 -17 -46 0
18 26 46 0
-18 -26 -46 0
19 39 46 0
-19 -39 -46 0
1 16 47 0
-1 -16 -47 0
14 17 47 0
-14 -17 -47 0
18 27 47 0
-18 -27 -47 0
19 40 47 0
-19 -40 -47 0
2 16 48 0
-2 -16 -48 0
15 17 48 0
-15 -17 -48 0
18 28 48 0
-18 -28 -48 0
19 41 48 0
-19 -41 -48 0
3 16 49 0
-3 -16 -49 0
16 17 49 0
-16 -17 -49 0
18 29 49 0
-18 -29 -49 0
19 42 49 0
-19 -42 -49 0
