certificates/rado_a13_c254_N49.drat
20 -45 -46 -47 0
-44 -21 -20 -49 0
-20 -46 -49 0
-46 -47 -49 0
20 46 -47 0
-47 -49 0
d -46 -47 -49 0
14 46 -49 0
46 -48 -49 0
-48 -49 0
d 46 -48 -49 0
-46 -49 0
d -20 -46 -49 0
22 -49 0
-49 0
20 48 -22 0
48 -22 0
d 20 48 -22 0
-48 -22 0
d -16 -48 -22 0
-22 0
17 0
-48 0
16 0
41 0
-8 0
40 0
-21 0
-7 0
2 0
30 0
29 0
3 0
27 0
26 0
39 0
-35 0
-36 0
-20 0
-19 0
-6 0
4 0
14 0
43 0
42 0
1 0
15 0
28 0
13 0
12 0
25 0
38 0
-37 0
-47 0
-10 0
-9 0
-34 0
-46 0
-45 0
-18 0
-5 0
0
